
  12    4
  10   10   10   10

   0   0   0   0   0   2 2 5 
   3  10  10  10  10   1 3 
   9  10  10  10  10   1 4 
   7  10  10  10  10   3 11 9 7 
   8  10  10  10  10   1 6 
   2  10  10  10  10   3 11 9 8 
   4  10  10  10  10   1 8 
   4  10  10  10  10   1 10 
   3  10  10  10  10   1 10 
   1  10  10  10  10   1 12
  10  10  10  10  10   1 12
   0   0   0   0   0   0 
